(set-info :Origin "This instance was generated by: BanditFuzz-- an RL fuzzer for SMT solvers" )
(set-info :Author "Joe Scott, Fed Mora, Vijay Ganesh" )
(set-info :Contact "Joe Scott, joseph.scott@uwaterloo.ca")
(set-logic QF_BV)
(declare-const bool_0 Bool)
(declare-const bool_1 Bool)
(declare-const bool_2 Bool)
(declare-const bool_3 Bool)
(declare-const bool_4 Bool)
(declare-const bv_0 (_ BitVec 32))
(declare-const bv_1 (_ BitVec 32))
(declare-const bv_2 (_ BitVec 32))
(declare-const bv_3 (_ BitVec 32))
(declare-const bv_4 (_ BitVec 32))
(assert (bvule (bvsrem (bvxnor bv_1 #x8729ceeb ) (bvnor bv_1 #x9281e1bc )) (bvxnor (bvadd bv_0 bv_3) (bvadd #x1438f3d4  #x072576c9 ))))
(assert (bvule (bvsub (bvsmod bv_4 #xc010b72a ) (bvurem #xe10c9a7d  bv_3)) (bvshl (bvmul #xe37d485f  bv_3) (bvmul bv_2 bv_3))))
(assert (bvsge (bvsmod (bvxnor bv_2 #x90145af7 ) (bvashr bv_4 bv_2)) (bvudiv (bvsrem bv_1 bv_1) (bvsdiv #x3c525dee  #x82d49d63 ))))
(assert (bvult (bvsmod (bvadd #xa522edf5  bv_2) (bvxnor bv_1 #xdae4b42f )) (bvudiv (bvsub #x20298843  #xb8a10e95 ) (bvnand #x8674f793  #x915e4640 ))))
(assert (=> (bvsle (bvsdiv bv_3 #xd2bdcba6 ) (bvxnor bv_4 #xf7d23544 )) (and (and bool_1 false) (bvsgt #xd3255b9c  bv_2))))
(check-sat)
(exit)
